122     4       
18      18      16      13      
0       0       0       0       0       3       2       3       4       
9       0       0       0       7       3       6       7       16      
3       0       0       0       9       3       11      36      83      
6       10      0       0       0       3       5       12      18      
10      0       0       9       0       3       8       81      108     
10      0       6       0       0       1       9       
2       0       0       6       0       3       14      58      60      
2       8       0       0       0       3       15      28      42      
8       7       0       0       0       3       10      31      52      
2       0       0       0       3       3       13      34      39      
3       0       0       0       9       1       68      
7       0       0       6       0       3       24      79      84      
5       0       2       0       0       3       21      23      56      
9       7       0       0       0       3       17      20      32      
5       1       0       0       0       3       25      45      71      
8       0       4       0       0       2       27      66      
2       0       0       0       9       3       19      37      50      
6       0       0       0       2       3       22      65      104     
10      0       8       0       0       3       41      53      54      
1       0       0       3       0       2       59      96      
10      0       1       0       0       3       35      40      64      
10      0       1       0       0       3       29      30      80      
6       0       0       8       0       3       26      96      100     
5       0       5       0       0       3       45      49      118     
6       0       0       8       0       3       75      78      97      
6       0       0       0       9       1       38      
1       0       0       1       0       3       51      61      92      
1       0       0       1       0       3       33      45      46      
7       3       0       0       0       1       38      
9       4       0       0       0       1       98      
7       0       10      0       0       1       62      
7       0       0       0       8       1       44      
1       0       0       0       2       3       44      47      73      
2       0       3       0       0       1       48      
7       0       9       0       0       3       81      102     114     
2       0       0       0       2       1       108     
7       0       0       5       0       1       43      
10      0       0       0       10      2       88      115     
3       0       0       10      0       1       94      
7       0       0       0       5       1       67      
5       0       0       6       0       1       55      
10      0       2       0       0       1       74      
7       0       0       8       0       3       46      49      70      
7       0       4       0       0       1       70      
1       0       0       4       0       2       58      72      
1       0       0       4       0       1       85      
9       2       0       0       0       3       53      55      109     
1       0       0       4       0       3       62      90      121     
2       0       0       6       0       2       53      69      
5       0       0       0       1       2       79      87      
8       0       0       4       0       3       74      83      89      
4       0       0       8       0       1       94      
6       0       0       1       0       1       66      
4       0       1       0       0       1       65      
6       0       0       8       0       3       57      61      63      
2       4       0       0       0       3       59      67      77      
10      0       9       0       0       1       82      
2       0       0       5       0       2       74      112     
5       0       6       0       0       1       100     
9       0       2       0       0       1       106     
7       0       10      0       0       2       76      90      
3       0       0       0       8       1       106     
10      0       2       0       0       2       66      93      
9       0       5       0       0       3       70      84      95      
1       6       0       0       0       3       69      79      86      
10      7       0       0       0       1       88      
5       0       8       0       0       2       81      102     
10      0       0       0       10      1       112     
9       0       0       6       0       2       88      99      
2       0       0       0       6       3       77      93      101     
2       0       0       5       0       2       76      91      
7       7       0       0       0       2       98      113     
9       9       0       0       0       1       92      
8       2       0       0       0       1       117     
5       0       0       1       0       1       87      
4       5       0       0       0       2       78      99      
4       0       0       0       7       1       100     
2       0       0       2       0       1       87      
9       9       0       0       0       1       107     
3       0       0       0       6       2       84      86      
7       0       3       0       0       2       83      101     
10      0       2       0       0       2       91      103     
7       7       0       0       0       3       95      97      116     
3       0       0       0       2       1       103     
4       3       0       0       0       1       105     
6       0       10      0       0       2       90      99      
5       0       5       0       0       1       104     
4       0       0       7       0       2       94      119     
2       4       0       0       0       2       107     113     
3       7       0       0       0       1       102     
5       1       0       0       0       2       93      115     
3       0       0       4       0       2       106     109     
4       0       0       6       0       2       96      118     
5       0       0       0       4       1       95      
8       0       5       0       0       1       110     
4       0       9       0       0       1       111     
3       0       3       0       0       1       98      
6       5       0       0       0       1       105     
5       0       6       0       0       1       103     
10      0       0       0       4       2       105     110     
10      0       0       0       2       1       104     
3       0       1       0       0       1       116     
4       10      0       0       0       2       110     114     
9       10      0       0       0       1       107     
6       0       0       1       0       1       119     
4       0       0       7       0       1       120     
2       0       0       0       3       1       118     
8       3       0       0       0       3       109     111     117     
2       9       0       0       0       1       114     
1       0       0       0       5       2       111     112     
2       0       6       0       0       2       113     120     
4       9       0       0       0       1       117     
6       9       0       0       0       1       121     
2       0       5       0       0       1       115     
6       0       0       0       5       1       116     
4       0       2       0       0       1       119     
10      0       0       10      0       1       120     
5       0       0       10      0       1       121     
4       0       0       0       4       1       122     
10      0       0       0       8       1       122     
4       2       0       0       0       1       122     
0       0       0       0       0       0       